17	4
34	26	26	33	
0	0	0	0	0	3	2	3	4	
9	5	5	0	9	3	7	9	15	
8	1	8	0	0	3	6	17	17	
3	3	8	0	0	3	5	8	12	
1	0	0	1	7	1	14	
25	3	0	3	0	2	13	17	
250	7	8	0	3	2	14	17	
175	0	0	7	5	3	10	11	17	
100	9	8	0	9	3	17	17	17	
125	7	0	0	7	2	13	17	
100	1	0	0	0	2	17	17	
175	10	0	0	3	1	16	
6	10	9	0	0	2	17	17	
1	1	7	10	0	1	17	
6	0	0	0	6	3	17	17	17	
2	0	5	0	5	3	17	17	17	
0	0	0	0	0	0	
